33D32945 STP File, STP Format Version 1.0

SECTION Comment
Name    "i080-343"
Creator "Cees Duin"
Remark  "Incidence graph"
END

SECTION Graph
Nodes 80
Edges 632
E 1 5 306
E 1 6 300
E 1 8 296
E 1 9 291
E 1 10 291
E 1 14 292
E 1 15 295
E 1 26 206
E 1 27 203
E 1 31 194
E 1 32 199
E 1 33 203
E 1 42 201
E 1 47 199
E 1 49 202
E 1 51 195
E 1 54 201
E 1 55 212
E 1 57 193
E 1 59 191
E 1 62 195
E 1 65 193
E 1 66 195
E 1 70 205
E 1 72 192
E 1 75 192
E 1 77 199
E 1 80 204
E 2 3 307
E 2 11 301
E 2 18 305
E 2 19 311
E 2 27 199
E 2 32 199
E 2 34 203
E 2 35 196
E 2 39 200
E 2 41 202
E 2 45 192
E 2 49 196
E 2 51 203
E 2 56 195
E 2 60 192
E 2 61 198
E 2 76 200
E 2 79 202
E 3 6 300
E 3 10 308
E 3 19 306
E 3 36 208
E 3 41 198
E 3 48 204
E 3 57 199
E 3 59 197
E 3 63 204
E 3 72 197
E 3 73 205
E 3 75 193
E 4 16 295
E 4 22 201
E 4 23 203
E 4 24 197
E 4 40 187
E 4 42 193
E 4 44 201
E 4 53 195
E 4 56 198
E 4 57 203
E 4 60 202
E 4 61 201
E 4 63 194
E 4 69 197
E 4 72 206
E 4 74 195
E 4 80 198
E 5 7 306
E 5 10 309
E 5 18 297
E 5 20 295
E 5 25 203
E 5 30 208
E 5 31 203
E 5 37 208
E 5 47 199
E 5 48 192
E 5 55 202
E 5 60 207
E 5 62 194
E 5 66 197
E 5 74 191
E 5 76 203
E 6 9 298
E 6 22 196
E 6 23 195
E 6 27 196
E 6 28 203
E 6 32 198
E 6 41 203
E 6 43 201
E 6 45 205
E 6 46 196
E 6 57 207
E 6 76 196
E 6 77 198
E 6 80 188
E 7 10 307
E 7 26 199
E 7 27 200
E 7 30 198
E 7 34 196
E 7 48 202
E 7 50 193
E 7 55 204
E 7 57 198
E 7 58 208
E 7 60 199
E 7 66 195
E 7 71 199
E 7 76 205
E 7 78 200
E 7 80 203
E 8 12 295
E 8 13 299
E 8 14 305
E 8 18 306
E 8 19 299
E 8 20 298
E 8 24 197
E 8 33 200
E 8 35 194
E 8 41 202
E 8 44 194
E 8 46 197
E 8 50 209
E 8 56 196
E 8 59 206
E 8 61 197
E 8 70 207
E 8 74 189
E 8 75 198
E 8 79 199
E 9 10 292
E 9 13 297
E 9 20 291
E 9 24 197
E 9 30 200
E 9 31 200
E 9 36 207
E 9 41 192
E 9 43 193
E 9 51 196
E 9 63 195
E 9 78 201
E 9 79 208
E 10 13 298
E 10 16 308
E 10 23 201
E 10 30 199
E 10 44 208
E 10 55 191
E 10 80 205
E 11 12 297
E 11 22 191
E 11 40 207
E 11 41 197
E 11 46 196
E 11 52 193
E 11 54 205
E 11 62 191
E 11 68 193
E 11 71 200
E 11 79 201
E 12 15 294
E 12 17 303
E 12 21 195
E 12 23 202
E 12 24 206
E 12 54 204
E 12 60 189
E 12 62 199
E 12 77 201
E 13 14 309
E 13 17 301
E 13 18 300
E 13 23 198
E 13 27 192
E 13 39 202
E 13 40 193
E 13 47 199
E 13 53 199
E 13 54 194
E 13 58 201
E 13 60 203
E 13 62 201
E 13 66 197
E 13 69 193
E 14 20 297
E 14 27 196
E 14 31 195
E 14 32 196
E 14 44 208
E 14 46 198
E 14 55 196
E 14 57 203
E 14 61 189
E 14 80 197
E 15 20 305
E 15 30 198
E 15 35 199
E 15 37 199
E 15 41 196
E 15 43 195
E 15 46 205
E 15 47 216
E 15 53 200
E 15 54 199
E 15 64 198
E 15 70 196
E 15 73 209
E 16 22 206
E 16 30 202
E 16 38 197
E 16 47 203
E 16 48 206
E 16 60 198
E 16 64 206
E 16 65 200
E 16 66 200
E 16 73 197
E 16 74 197
E 16 77 193
E 17 20 299
E 17 23 200
E 17 29 194
E 17 44 202
E 17 46 199
E 17 55 203
E 17 56 198
E 17 60 195
E 17 63 203
E 17 69 197
E 17 71 192
E 17 75 195
E 17 77 193
E 17 78 202
E 17 79 194
E 18 25 202
E 18 26 197
E 18 29 205
E 18 51 194
E 18 62 198
E 18 63 204
E 18 64 192
E 18 72 198
E 18 77 196
E 19 21 199
E 19 22 195
E 19 23 199
E 19 24 199
E 19 26 192
E 19 28 209
E 19 29 196
E 19 30 193
E 19 36 200
E 19 45 198
E 19 46 194
E 19 47 203
E 19 52 197
E 19 54 200
E 19 57 198
E 19 62 198
E 19 68 198
E 19 70 207
E 19 71 200
E 19 73 201
E 19 77 187
E 20 31 200
E 20 42 197
E 20 49 199
E 20 56 195
E 20 59 193
E 20 63 194
E 20 69 207
E 20 70 193
E 20 74 196
E 20 75 195
E 20 79 196
E 21 22 99
E 21 34 100
E 21 37 101
E 21 42 93
E 21 44 108
E 21 47 95
E 21 48 97
E 21 52 99
E 21 55 100
E 21 61 99
E 21 73 102
E 21 80 107
E 22 25 101
E 22 31 96
E 22 32 98
E 22 44 100
E 22 46 105
E 22 53 99
E 22 55 100
E 22 74 95
E 23 26 98
E 23 35 99
E 23 46 104
E 23 58 104
E 23 60 103
E 23 66 104
E 23 75 101
E 23 78 96
E 23 79 100
E 23 80 106
E 24 37 100
E 24 41 101
E 24 43 92
E 24 45 96
E 24 50 100
E 24 52 98
E 24 54 102
E 24 62 102
E 24 66 101
E 24 72 94
E 24 73 104
E 24 75 100
E 24 80 98
E 25 34 99
E 25 36 100
E 25 40 107
E 25 41 107
E 25 42 94
E 25 52 100
E 25 54 111
E 25 59 110
E 25 67 99
E 25 68 103
E 25 70 105
E 25 72 96
E 25 76 99
E 25 78 97
E 26 34 96
E 26 37 101
E 26 38 101
E 26 42 97
E 26 45 99
E 26 49 94
E 26 57 109
E 26 62 95
E 26 65 100
E 26 66 90
E 26 73 99
E 26 77 96
E 27 33 98
E 27 35 100
E 27 38 99
E 27 41 96
E 27 48 112
E 27 49 102
E 27 50 100
E 27 55 109
E 27 57 103
E 27 59 97
E 27 62 99
E 27 67 101
E 27 70 92
E 27 74 100
E 27 79 94
E 28 42 100
E 28 44 94
E 28 45 106
E 28 48 95
E 28 49 107
E 28 50 108
E 28 59 109
E 28 64 100
E 28 65 91
E 28 71 100
E 28 73 102
E 28 77 105
E 29 36 105
E 29 38 96
E 29 43 94
E 29 46 98
E 29 49 113
E 29 50 95
E 29 52 88
E 29 55 102
E 29 56 97
E 29 64 100
E 29 68 103
E 29 80 107
E 30 32 105
E 30 33 104
E 30 34 94
E 30 41 108
E 30 47 108
E 30 49 99
E 30 50 95
E 30 58 101
E 30 62 110
E 30 68 109
E 30 71 97
E 30 72 96
E 30 73 100
E 30 80 106
E 31 33 102
E 31 39 95
E 31 43 92
E 31 54 92
E 31 57 101
E 31 59 106
E 31 76 97
E 31 80 94
E 32 35 95
E 32 38 96
E 32 42 100
E 32 44 101
E 32 51 99
E 32 52 99
E 32 65 98
E 32 67 110
E 32 68 104
E 32 74 96
E 32 79 103
E 33 37 95
E 33 38 98
E 33 39 106
E 33 41 92
E 33 45 94
E 33 46 101
E 33 54 100
E 33 56 108
E 33 58 98
E 33 59 99
E 33 64 103
E 33 72 97
E 33 77 102
E 33 79 106
E 34 42 103
E 34 45 94
E 34 50 93
E 34 57 100
E 34 58 97
E 34 72 93
E 34 75 101
E 35 42 102
E 35 43 99
E 35 46 106
E 35 50 109
E 35 58 98
E 35 68 104
E 35 69 104
E 35 75 105
E 36 42 105
E 36 45 95
E 36 49 102
E 36 57 95
E 36 60 105
E 36 65 89
E 36 75 104
E 36 77 103
E 36 80 98
E 37 38 109
E 37 41 102
E 37 42 95
E 37 45 99
E 37 51 105
E 37 52 90
E 37 55 103
E 37 62 107
E 37 66 97
E 38 44 101
E 38 49 98
E 38 55 108
E 38 80 104
E 39 48 95
E 39 61 98
E 39 72 94
E 39 77 101
E 40 45 98
E 40 46 98
E 40 47 95
E 40 49 110
E 40 51 102
E 40 65 94
E 40 67 101
E 40 69 104
E 40 76 103
E 41 44 98
E 41 51 97
E 41 53 97
E 41 55 102
E 41 59 100
E 41 61 98
E 41 64 98
E 41 65 103
E 41 70 105
E 41 72 96
E 42 47 101
E 42 51 104
E 42 53 98
E 42 56 92
E 42 65 107
E 42 67 99
E 42 68 101
E 42 69 91
E 42 70 94
E 42 80 102
E 43 45 93
E 43 48 95
E 43 68 101
E 43 70 92
E 43 76 102
E 43 78 92
E 43 79 92
E 43 80 107
E 44 52 103
E 44 55 104
E 44 61 105
E 45 50 96
E 45 54 101
E 45 56 102
E 45 67 92
E 45 69 91
E 45 75 98
E 45 78 93
E 45 80 102
E 46 51 102
E 46 55 93
E 46 67 106
E 46 68 102
E 46 72 100
E 47 52 98
E 47 58 96
E 47 62 106
E 47 67 104
E 47 80 106
E 48 49 101
E 48 57 105
E 48 78 103
E 48 79 105
E 49 60 104
E 49 61 90
E 49 75 92
E 50 57 104
E 50 61 101
E 50 62 103
E 50 79 91
E 51 55 103
E 51 60 90
E 51 61 101
E 51 64 103
E 51 66 104
E 51 67 108
E 51 71 113
E 51 72 103
E 51 77 97
E 51 78 94
E 52 56 101
E 52 57 102
E 52 66 102
E 52 68 100
E 52 71 103
E 52 75 100
E 52 76 102
E 52 78 108
E 53 69 97
E 53 78 102
E 54 56 96
E 54 57 101
E 54 68 98
E 54 69 97
E 54 73 94
E 55 60 96
E 55 61 98
E 55 63 101
E 55 65 99
E 55 68 98
E 55 75 101
E 55 77 104
E 55 79 88
E 56 62 102
E 56 64 95
E 56 65 98
E 56 69 97
E 56 77 100
E 57 78 97
E 58 67 96
E 59 62 101
E 59 70 107
E 59 74 104
E 59 79 98
E 60 76 101
E 61 62 101
E 61 67 94
E 61 77 102
E 61 78 102
E 62 63 101
E 62 64 103
E 62 65 93
E 62 68 96
E 62 75 99
E 63 66 103
E 63 70 100
E 63 73 98
E 64 71 103
E 64 74 94
E 64 76 93
E 65 72 108
E 65 73 100
E 65 74 99
E 66 69 94
E 66 70 99
E 66 72 99
E 66 74 102
E 66 78 101
E 67 69 98
E 67 80 100
E 68 77 96
E 68 78 95
E 68 80 111
E 69 72 104
E 69 73 94
E 70 76 100
E 70 80 94
E 71 73 98
E 71 80 107
E 73 77 103
END

SECTION Terminals
Terminals 20
T 1
T 2
T 3
T 4
T 5
T 6
T 7
T 8
T 9
T 10
T 11
T 12
T 13
T 14
T 15
T 16
T 17
T 18
T 19
T 20
END

EOF
